19110
19110
20235
20235
20830
21523
21680
21899
22572
22572
22572
22572
22572
22782
22782
23020
23020
23020
23020
23020
23020
23020
23020
23060
23060
23060
23308
23308
23527
23527
23527
23674
23674
23674
23674
23674
23674
23873
23873
23894
23915
23915
23915
24150
24150
24150
24150
24228
24320
24320
24320
24459
24459
24459
24459
24459
24459
24459
24459
24459
24555
24555
24555
24792
24792
24792
24792
24792
24792
24792
24792
24792
24792
24792
24792
24792
24792
24853
24853
24853
24853
24854
24854
24854
24854
24854
24882
24889
24941
24941
24941
24941
24941
24941
24941
24941
24941
24941
25069
